0	228	274	0	200
1	485	177	0	200
2	201	278	0	200
3	439	388	0	200
4	390	38	0	200
5	160	304	0	200
6	246	425	0	200
7	23	130	0	200
8	448	473	0	200
9	16	265	0	200
10	155	434	0	200
11	39	100	0	200
12	55	160	0	200
13	268	8	0	200
14	332	47	0	200
15	353	336	0	200
16	266	191	0	200
17	140	402	0	200
18	484	398	0	200
19	441	428	0	200
20	7	29	0	200
21	153	94	0	200
22	407	495	0	200
23	114	370	0	200
24	459	265	0	200
